50
161
229
146
219
221
187
123
150
202
171
134
157
150
140
214
237
185
243
176
206
123
223
200
176
144
162
204
246
197
171
237
199
138
212
174
142
172
202
206
203
190
220
246
156
144
126
193
235
183
140
